
  25    0


   0  12 2 3 4 5 8 9 10 11 12 22 23 24 
   9   3 15 14 6 
   5   4 21 16 15 14 
   8   4 20 19 16 13 
   9   3 16 15 7 
   1   2 17 13 
   4   1 13 
   7   1 14 
   2   1 18 
   1   1 15 
   7   1 14 
   5   1 13 
   3   1 25
   7   1 25
   7   1 25
   3   1 25
   2   1 25
   6   1 25
   8   1 25
  10   1 25
   4   1 25
   9   1 25
   7   1 25
   1   1 25
   0   0 
